
Gurobi 8.1.0 (linux64, Python) logging started Tue Nov 27 23:38:39 2018

Academic license - for non-commercial use only

Gurobi 8.1.0 (linux64, Python) logging started Tue Nov 27 23:38:44 2018

Academic license - for non-commercial use only

Gurobi 8.1.0 (linux64, Python) logging started Wed Nov 28 12:44:09 2018

Academic license - for non-commercial use only

Gurobi 8.1.0 (linux64, Python) logging started Wed Nov 28 12:49:25 2018

Academic license - for non-commercial use only

Gurobi 8.1.0 (linux64, Python) logging started Wed Nov 28 12:55:05 2018

Academic license - for non-commercial use only

Gurobi 8.1.0 (linux64, Python) logging started Wed Nov 28 12:55:10 2018

Academic license - for non-commercial use only

Gurobi 8.1.0 (linux64, Python) logging started Wed Nov 28 12:55:13 2018

Academic license - for non-commercial use only

Gurobi 8.1.0 (linux64, Python) logging started Wed Nov 28 12:55:16 2018

Academic license - for non-commercial use only

Gurobi 8.1.0 (linux64, Python) logging started Wed Nov 28 12:55:19 2018

Academic license - for non-commercial use only

Gurobi 8.1.0 (linux64, Python) logging started Wed Nov 28 12:55:21 2018

Academic license - for non-commercial use only

Gurobi 8.1.0 (linux64, Python) logging started Wed Nov 28 12:55:34 2018

Academic license - for non-commercial use only

Gurobi 8.1.0 (linux64, Python) logging started Wed Nov 28 12:55:42 2018

Academic license - for non-commercial use only

Gurobi 8.1.0 (linux64, Python) logging started Wed Nov 28 13:01:02 2018

Academic license - for non-commercial use only

Gurobi 8.1.0 (linux64, Python) logging started Wed Nov 28 13:02:45 2018

Academic license - for non-commercial use only

Gurobi 8.1.0 (linux64, Python) logging started Wed Nov 28 13:03:47 2018

Academic license - for non-commercial use only

Gurobi 8.1.0 (linux64, Python) logging started Wed Nov 28 13:03:55 2018

Academic license - for non-commercial use only

Gurobi 8.1.0 (linux64, Python) logging started Wed Nov 28 13:06:13 2018

Academic license - for non-commercial use only

Gurobi 8.1.0 (linux64, Python) logging started Wed Nov 28 13:06:21 2018

Academic license - for non-commercial use only

Gurobi 8.1.0 (linux64, Python) logging started Wed Nov 28 13:06:42 2018

Academic license - for non-commercial use only

Gurobi 8.1.0 (linux64, Python) logging started Wed Nov 28 13:06:59 2018

Academic license - for non-commercial use only
